(set-info :smt-lib-version 2.6)
(set-logic QF_SLIA)
(set-info :source |
Generated by: Joel Day, Thorsten Ehlers, Mitja Kulczynski, Federico Mora, Florin Manea, Dirk Nowotka, Danny Poulsen, Zhengyang Lu
Application: Test WOORPJE
Target solver: WOORPJE
Publications: Day, J. D., Ehlers, T., Kulczynski, M., Manea, F., Nowotka, D., & Poulsen, D. B. (2019). On solving word equations using SAT. In RP 2019
Description: Enriches a system of 30 word equations by suitable linear constraints
|)
(set-info :license "https://creativecommons.org/licenses/by/4.0/")
(set-info :category "random")
(set-info :status unknown)

(declare-fun H () String)
(declare-fun I () String)
(declare-fun E () String)
(declare-fun A () String)
(declare-fun J () String)
(assert (= (str.++  "a" J "bacfcdbfda" H "e" J "fd" E)  (str.++  "afb" A "fcdbfd" A "aedc" I A "ffeedecee" J J "da" J) ))
(assert (= (str.++  "ebebaadaebded" A "ffbaaaddedaf" J "eadf" J J "dcdbbd")  (str.++  "ebebaadaebded" A J "fbaaadded" E J "eadf" J J "dcdbbd") ))
(assert (= (str.++  A "bdddedffcd" J "eda" J "bbdcaddbcdbdbeefb" J "c" E E)  (str.++  A "bdddedf" J "cd" J "eda" J "bbdcaddbcdbdbeefbfcaf" E) ))
(assert (>=(* (str.len I) 20) 20))
(assert (<=(* (str.len I) 16) 1328))
(assert (>=(* (str.len J) 11) 11))
(assert (<=(* (str.len J) 16) 80))
(assert (<=(* (str.len E) 16) 96))
(check-sat)

(exit)
